[1, 4, 3, 2, 5, 8, 7, 6, 15, 13, 12, 16, 13, 13, 14, 17, 16, 18, 18, 21, 20, 22, 23, 24, 22, 19, 20, 22, 29, 31, 30, 32, 30, 28, 32, 31, 39, 38, 39, 40, 39, 44, 41, 40, 38, 50, 49, 51, 48, 47, 46, 52, 52, 51, 54, 55, 68, 67, 66, 64, 66, 63, 65, 60, 61, 62, 68, 68, 69, 71, 73, 74, 75, 72, 70, 68, 61, 84, 84, 82, 83, 82, 81, 85, 87, 84, 83, 83, 84, 90, 91, 92, 92, 94, 96, 95, 95, 98, 100, 99, 101, 104, 102, 103, 105, 88, 110, 111, 112, 109, 111, 112, 114, 113, 115, 115, 119, 121, 119, 129, 125, 124, 122, 127, 121, 128, 128, 129, 127, 132, 131, 132, 133, 135, 134, 133, 137, 150, 141, 140, 139, 144, 144, 145, 143, 145, 145, 148, 149, 138, 151, 152, 153, 154, 155, 156, 156, 160, 159, 161, 160, 162, 163, 164, 165, 166, 166, 169, 170, 170, 173, 172, 171, 170, 171, 175, 176, 175, 183, 181, 180, 179, 182, 184, 187, 186, 185, 188, 189, 188, 188, 189, 192, 194, 196, 194, 202, 200, 197, 209, 205, 204, 203, 204, 208, 207, 206, 205, 206, 207, 211, 212, 212, 213, 215, 216, 221, 220, 219, 218, 217, 222, 223, 223, 226, 226, 227, 228, 230, 229, 229, 233, 233, 234, 230, 238, 231, 239, 239, 242, 241, 242, 243, 249, 244, 250, 251, 246, 245, 247, 248, 251, 255, 253, 254, 258, 261, 261, 260, 258, 259, 260, 268, 259, 266, 266, 269, 267, 268, 270, 271, 276, 275, 273, 272, 274, 270, 271, 277, 280]
[1, 2, 3, 4, 5, 6, 7, 15, 15, 17, 17, 18, 19, 19, 27, 28, 30, 30, 31, 31, 38, 38, 38, 39, 39, 43, 45, 47, 50, 50, 51, 51, 53, 54, 59, 60, 60, 61, 65, 65, 69, 70, 71, 73, 87, 89, 91, 91, 93, 94, 94, 97, 98, 100, 101, 102, 104, 111, 111, 113, 123, 127, 127, 128, 128, 130, 131, 131, 133, 137, 138, 143, 143, 147, 153, 154, 155, 155, 158, 160, 162, 163, 164, 165, 165, 170, 170, 171, 174, 174, 175, 178, 179, 181, 182, 185, 186, 187, 187, 187, 193, 193, 199, 203, 203, 204, 204, 205, 205, 206, 206, 207, 214, 217, 222, 222, 228, 228, 229, 229, 230, 232, 232, 233, 240, 244, 245, 247, 249, 250, 250, 252, 253, 257, 257, 258, 258, 259, 259, 260, 260, 267, 267, 273, 281, 284, 286, 290, 292, 293, 294, 294, 295, 297, 298, 298, 299, 306, 308, 308, 310, 310, 316, 316, 318, 318, 324, 325, 326, 327, 328, 329, 329, 332, 339, 339, 340, 343, 345, 351, 352, 359, 363, 369, 370, 370, 372, 378, 379, 380, 381, 388, 389, 389, 391, 397, 397, 400, 406, 406, 407, 407, 409, 411, 411, 413, 416, 417, 418, 419, 421, 426, 427, 428, 430, 431, 432, 433, 437, 439, 441, 444, 444, 449, 449, 451, 457, 458, 459, 461, 462, 463, 467, 467, 470, 472, 472, 475, 478, 482, 482, 484, 484, 485, 485, 487, 490, 490, 491, 493, 494, 495, 496, 497, 498, 499, 500, 504, 504, 505, 507, 507, 508, 508, 509, 511, 511, 517, 517, 520, 520, 521, 522, 523, 524, 526, 527, 528, 533, 536, 536, 537, 537, 538, 538, 546, 546, 552, 553, 555, 559, 561, 562, 564, 565, 569, 570, 570, 570, 574, 575, 575, 576, 578, 585, 586, 588, 588, 596, 596, 596, 597, 597, 601, 605, 609, 609, 617, 621, 622, 625, 625, 625, 625, 626, 629, 630, 632, 639, 639, 640, 640, 640, 644, 645, 647, 653, 657, 658, 659, 661, 662, 666, 668, 668, 671, 676, 676, 681, 684, 684, 685, 685, 688, 692, 694, 700, 705, 707, 710, 711, 712, 713, 713, 717, 717, 719, 721, 723, 723, 726, 727, 727, 727, 737, 739, 740, 743, 744, 746, 746, 751, 751, 754, 765, 766, 768, 769, 769, 770, 775, 776, 778, 780, 780, 783, 783, 785, 786, 786, 788, 791, 798, 800, 801, 802, 803, 805, 806, 807, 810, 811, 812, 816, 816, 817, 817, 818, 818, 823, 823, 825, 825, 826, 829, 833, 837, 840, 843, 848, 849, 849, 849, 850, 851, 854, 854, 855, 857, 860, 864, 865, 866, 866, 875, 875, 875, 882, 884, 885, 887, 887, 888, 888, 890, 897, 897, 898, 899, 902, 902, 904, 904, 904, 904, 905, 906, 907, 918, 918, 923, 927, 930, 932, 934, 938, 941, 948, 948, 950, 955, 955, 957, 957, 961, 964, 964, 965, 965, 968, 968, 971, 973, 975, 976, 977, 980, 980, 984, 988, 989, 991, 992, 992, 997, 999, 1001, 1007, 1007, 1008, 1009, 1012, 1016, 1017, 1020, 1021, 1023, 1024, 1024, 1024, 1025, 1025, 1030, 1030, 1033, 1036, 1040, 1040, 1042, 1042, 1043, 1043, 1045, 1047, 1048, 1048, 1049, 1051, 1055, 1057, 1058, 1063, 1064, 1065, 1065, 1074, 1075, 1075, 1078, 1078, 1079, 1084, 1085, 1090, 1096, 1096, 1102, 1102, 1103, 1104, 1104, 1105, 1111, 1112, 1116, 1118, 1119, 1121, 1123, 1129, 1130, 1131, 1131, 1137, 1137, 1137, 1144, 1145, 1145, 1146, 1146, 1147, 1147, 1153, 1153, 1154, 1154, 1154, 1156, 1164, 1166, 1166, 1178, 1183, 1183, 1183, 1183, 1184, 1186, 1187, 1188, 1196, 1198, 1198, 1198, 1199, 1199, 1199, 1199, 1205, 1209, 1210, 1210, 1213, 1215, 1217, 1218, 1219, 1220, 1224, 1226, 1226, 1227, 1227, 1230, 1230, 1234, 1234, 1239, 1240, 1243, 1243, 1246, 1247, 1247, 1249, 1253, 1254, 1255, 1259, 1259, 1260, 1260, 1260, 1263, 1265, 1266, 1268, 1276, 1278, 1280, 1281, 1281, 1284, 1294, 1295, 1298, 1299, 1301, 1303, 1303, 1303, 1311, 1315, 1318, 1323, 1324, 1327, 1327, 1328, 1332, 1333, 1334, 1336, 1337, 1344, 1344, 1349, 1353, 1356, 1358, 1361, 1362, 1365, 1366, 1366, 1368, 1369, 1370, 1376, 1376, 1381, 1381, 1382, 1388, 1397, 1399, 1406, 1408, 1409, 1411, 1412, 1412, 1413, 1414, 1414, 1415, 1416, 1416, 1416, 1423, 1425, 1425, 1426, 1426, 1433, 1433, 1433, 1434, 1434, 1435, 1441, 1442, 1444, 1446, 1446, 1448, 1449, 1454, 1460, 1460, 1461, 1463, 1467, 1469, 1476, 1476, 1479, 1481, 1482, 1494, 1495, 1496, 1497, 1498, 1499, 1504, 1508, 1513, 1513, 1519, 1521, 1521, 1525, 1526, 1526, 1527, 1527, 1528, 1533, 1539, 1539, 1539, 1542, 1543, 1547, 1549, 1550, 1550, 1554, 1554, 1555, 1556, 1558, 1559, 1563, 1564, 1564, 1564, 1565, 1565, 1567, 1569, 1569, 1575, 1577, 1580, 1581, 1583, 1583, 1586, 1590, 1599, 1599, 1600, 1600, 1602, 1606, 1606, 1607, 1609, 1610, 1614, 1616, 1621, 1624, 1624, 1625, 1627, 1627, 1628, 1632, 1633, 1633, 1639, 1640, 1643, 1644, 1645, 1645, 1647, 1653, 1653, 1654, 1654, 1662, 1662, 1665, 1665, 1668, 1670, 1671, 1675, 1676, 1677, 1686, 1686, 1686, 1688, 1697, 1702, 1704, 1704, 1705, 1705, 1711, 1711, 1712, 1712, 1712, 1713, 1713, 1714, 1717, 1719, 1720, 1724, 1724, 1728, 1733, 1734, 1734, 1736, 1737, 1739, 1739, 1745, 1746, 1748, 1755, 1755, 1757, 1757, 1757, 1757, 1758, 1763, 1764, 1765, 1765, 1767, 1768, 1768, 1771, 1774, 1777, 1778, 1782, 1783, 1784, 1784, 1785, 1785, 1788, 1788, 1792, 1792, 1800, 1800, 1801, 1801, 1802, 1802, 1805, 1805, 1807, 1808, 1810, 1811, 1812, 1814, 1817, 1817, 1818, 1818, 1818, 1822, 1823, 1825, 1827, 1832, 1839, 1839, 1842, 1843, 1843, 1843, 1844, 1844, 1846, 1852, 1853, 1855, 1858, 1860, 1862, 1862, 1865, 1867, 1867, 1870, 1873, 1876, 1877, 1877, 1878, 1878, 1879, 1879, 1880, 1880, 1881, 1882, 1886, 1888, 1890, 1891, 1893, 1899, 1899, 1903, 1903, 1904, 1906, 1906, 1914, 1915, 1915, 1923, 1932, 1932, 1934, 1934, 1939, 1939, 1946, 1948, 1954, 1955, 1958, 1964, 1967, 1969, 1970, 1970, 1973, 1974, 1974, 1974, 1975, 1982, 1982, 1990, 1990, 1991, 1991, 1991, 1992, 1992, 1996, 1998, 1999, 2001, 2002, 2003, 2003, 2007, 2012, 2014, 2016, 2019, 2020, 2020, 2020, 2020, 2023, 2024, 2025, 2036, 2036, 2036, 2036, 2046, 2047, 2047, 2050, 2052, 2053, 2054, 2056, 2061, 2062, 2063, 2063, 2064, 2064, 2065, 2066, 2071, 2071, 2073, 2073, 2076, 2077, 2083, 2086, 2089, 2090, 2091, 2093, 2095, 2096, 2096, 2097, 2097, 2097, 2105, 2114, 2116, 2123, 2123, 2125, 2128, 2132, 2133, 2134, 2141, 2141, 2144, 2156, 2156, 2158, 2158, 2159, 2159, 2160, 2161, 2165, 2167, 2169, 2172, 2173, 2175, 2175, 2179, 2180, 2181, 2181, 2182, 2182, 2185, 2185, 2193, 2195, 2196, 2197, 2198, 2205, 2207, 2210, 2210, 2211, 2211, 2213, 2213, 2219, 2227, 2232, 2238, 2245, 2252, 2253, 2253, 2253, 2254, 2260, 2263, 2263, 2271, 2271, 2272, 2275, 2277, 2278, 2279, 2280, 2281, 2283, 2283, 2286, 2293, 2294, 2296, 2298, 2302, 2303, 2315, 2315, 2315, 2315, 2316, 2318, 2321, 2322, 2323, 2323, 2325, 2327, 2332, 2334, 2341, 2342, 2342, 2343, 2343, 2344, 2346, 2346, 2353, 2355, 2356, 2358, 2358, 2360, 2360, 2362, 2364, 2364, 2365, 2370, 2371, 2372, 2374, 2376, 2376, 2376, 2381, 2383, 2385, 2390, 2394, 2397, 2397, 2400, 2401, 2401, 2401, 2402, 2402, 2406, 2406, 2410, 2411, 2412, 2414, 2415, 2418, 2419, 2419, 2419, 2420, 2420, 2425, 2425, 2433, 2434, 2435, 2435, 2436, 2436, 2437, 2437, 2438, 2438, 2446, 2447, 2448, 2449, 2451, 2452, 2454, 2454, 2457, 2457, 2464, 2464, 2469, 2470, 2470, 2473, 2473, 2474, 2475, 2476, 2477, 2478, 2479, 2480, 2481, 2482, 2482, 2486, 2489, 2489, 2490, 2490, 2492, 2492, 2502, 2502, 2503, 2505, 2508, 2512, 2514, 2522, 2523, 2523, 2523, 2525, 2527, 2529, 2532, 2532, 2532, 2534, 2539, 2540, 2540, 2541, 2541, 2548, 2548, 2549, 2549, 2549, 2551, 2556, 2559, 2560, 2561, 2561, 2562, 2562, 2565, 2578, 2578, 2578, 2578, 2579, 2581, 2582, 2585, 2591, 2597, 2600, 2604, 2609, 2610, 2612, 2615, 2620, 2621, 2621, 2623, 2631, 2631, 2632, 2634, 2638, 2638, 2639, 2639, 2642, 2642, 2643, 2643, 2647, 2648, 2651, 2653, 2654, 2654, 2655, 2655, 2655, 2660, 2661, 2663, 2664, 2670, 2670, 2672, 2673, 2674, 2679, 2683, 2685, 2685, 2686, 2689, 2691, 2693, 2694, 2702, 2704, 2704, 2713, 2714, 2714, 2719, 2721, 2725, 2726, 2728, 2730, 2731, 2732, 2733, 2733, 2736, 2736, 2739, 2739, 2740, 2740, 2748, 2749, 2749, 2752, 2752, 2754, 2756, 2760, 2761, 2761, 2765, 2769, 2769, 2778, 2778, 2779, 2780, 2780, 2782, 2784, 2786]
